
Presolve eliminates 2066292 constraints and 2061972 variables.
Adjusted problem:
897732 variables:
	890460 binary variables
	7272 linear variables
908398 constraints, all linear; 7070868 nonzeros
	14950 equality constraints
	893448 inequality constraints
1 linear objective; 883188 nonzeros.

Gurobi 9.1.2: mipgap 0.01
outlev 1
timelim 3600
Gurobi Optimizer version 9.1.2 build v9.1.2rc0 (linux64)
Thread count: 4 physical cores, 4 logical processors, using up to 4 threads
Optimize a model with 908398 rows, 897732 columns and 7070868 nonzeros
Model fingerprint: 0xd2de2b46
Variable types: 7272 continuous, 890460 integer (890460 binary)
Coefficient statistics:
  Matrix range     [2e-01, 2e+02]
  Objective range  [4e+01, 1e+04]
  Bounds range     [1e+00, 2e+02]
  RHS range        [1e+00, 2e+02]
Presolve removed 0 rows and 0 columns (presolve time = 9s) ...
Presolve removed 0 rows and 0 columns (presolve time = 10s) ...
Presolve removed 0 rows and 0 columns (presolve time = 15s) ...
Presolve removed 0 rows and 0 columns (presolve time = 20s) ...
Presolve removed 14544 rows and 0 columns (presolve time = 25s) ...
Presolve removed 14544 rows and 0 columns (presolve time = 30s) ...
Presolve removed 14544 rows and 0 columns (presolve time = 42s) ...
Presolve removed 14544 rows and 0 columns (presolve time = 46s) ...
Presolve removed 14544 rows and 0 columns
Presolve time: 46.43s
Presolved: 893854 rows, 897732 columns, 4435056 nonzeros
Variable types: 7272 continuous, 890460 integer (890460 binary)

Deterministic concurrent LP optimizer: primal simplex, dual simplex, and barrier
Showing barrier log only...

Root barrier log...

Elapsed ordering time = 5s
Elapsed ordering time = 10s
Elapsed ordering time = 15s
Elapsed ordering time = 20s
Elapsed ordering time = 25s
Elapsed ordering time = 30s
Elapsed ordering time = 35s
Elapsed ordering time = 40s
Elapsed ordering time = 45s
Elapsed ordering time = 50s
Elapsed ordering time = 55s
Elapsed ordering time = 60s
Elapsed ordering time = 65s
Elapsed ordering time = 70s
Elapsed ordering time = 75s
Elapsed ordering time = 80s
Elapsed ordering time = 85s
Elapsed ordering time = 90s
Elapsed ordering time = 95s
Elapsed ordering time = 100s
Elapsed ordering time = 105s
Elapsed ordering time = 110s
Elapsed ordering time = 115s
Elapsed ordering time = 120s
Elapsed ordering time = 125s
Elapsed ordering time = 130s
Elapsed ordering time = 198s
Elapsed ordering time = 205s
Elapsed ordering time = 211s
Elapsed ordering time = 218s
Elapsed ordering time = 222s
Elapsed ordering time = 225s
Elapsed ordering time = 232s
Elapsed ordering time = 235s
Elapsed ordering time = 242s
Elapsed ordering time = 247s
Elapsed ordering time = 250s
Elapsed ordering time = 257s
Elapsed ordering time = 264s
Elapsed ordering time = 266s
Elapsed ordering time = 271s
Elapsed ordering time = 277s
Elapsed ordering time = 280s
Elapsed ordering time = 285s
Elapsed ordering time = 291s
Elapsed ordering time = 295s
Elapsed ordering time = 300s
Elapsed ordering time = 306s
Elapsed ordering time = 312s
Elapsed ordering time = 315s
Elapsed ordering time = 321s
Elapsed ordering time = 325s
Elapsed ordering time = 330s
Elapsed ordering time = 335s
Elapsed ordering time = 341s
Elapsed ordering time = 345s
Elapsed ordering time = 350s
Elapsed ordering time = 355s
Elapsed ordering time = 360s
Elapsed ordering time = 365s
Elapsed ordering time = 370s
Elapsed ordering time = 375s
Elapsed ordering time = 380s
Elapsed ordering time = 385s
Elapsed ordering time = 390s
Elapsed ordering time = 395s
Elapsed ordering time = 400s
Elapsed ordering time = 405s
Elapsed ordering time = 410s
Elapsed ordering time = 415s
Elapsed ordering time = 420s
Elapsed ordering time = 425s
Elapsed ordering time = 430s
Elapsed ordering time = 435s
Elapsed ordering time = 440s
Elapsed ordering time = 445s
Elapsed ordering time = 450s
Elapsed ordering time = 455s
Elapsed ordering time = 518s
Elapsed ordering time = 526s
Elapsed ordering time = 532s
Elapsed ordering time = 537s
Elapsed ordering time = 543s
Elapsed ordering time = 546s
Elapsed ordering time = 553s
Elapsed ordering time = 556s
Elapsed ordering time = 562s
Elapsed ordering time = 566s
Elapsed ordering time = 572s
Elapsed ordering time = 576s
Elapsed ordering time = 584s
Elapsed ordering time = 586s
Elapsed ordering time = 590s
Elapsed ordering time = 597s
Elapsed ordering time = 600s
Elapsed ordering time = 606s
Elapsed ordering time = 611s
Elapsed ordering time = 615s
Elapsed ordering time = 620s
Elapsed ordering time = 626s
Elapsed ordering time = 630s
Elapsed ordering time = 635s
Elapsed ordering time = 640s
Elapsed ordering time = 645s
Elapsed ordering time = 650s
Elapsed ordering time = 655s
Elapsed ordering time = 661s
Elapsed ordering time = 665s
Elapsed ordering time = 670s
Elapsed ordering time = 675s
Elapsed ordering time = 680s
Elapsed ordering time = 685s
Elapsed ordering time = 690s
Elapsed ordering time = 695s
Elapsed ordering time = 700s
Elapsed ordering time = 705s
Elapsed ordering time = 710s
Elapsed ordering time = 715s
Elapsed ordering time = 720s
Elapsed ordering time = 725s
Elapsed ordering time = 730s
Elapsed ordering time = 735s
Elapsed ordering time = 740s
Elapsed ordering time = 745s
Elapsed ordering time = 750s
Elapsed ordering time = 755s
Elapsed ordering time = 760s
Elapsed ordering time = 765s
Elapsed ordering time = 770s
Elapsed ordering time = 775s
Elapsed ordering time = 780s
Elapsed ordering time = 785s
Elapsed ordering time = 790s
Elapsed ordering time = 838s
Elapsed ordering time = 844s
Elapsed ordering time = 847s
Elapsed ordering time = 851s
Elapsed ordering time = 856s
Elapsed ordering time = 863s
Elapsed ordering time = 865s
Elapsed ordering time = 872s
Elapsed ordering time = 876s
Elapsed ordering time = 883s
Elapsed ordering time = 886s
Elapsed ordering time = 890s
Elapsed ordering time = 895s
Elapsed ordering time = 900s
Elapsed ordering time = 906s
Elapsed ordering time = 911s
Elapsed ordering time = 916s
Elapsed ordering time = 920s
Elapsed ordering time = 925s
Elapsed ordering time = 930s
Elapsed ordering time = 938s
Elapsed ordering time = 940s
Elapsed ordering time = 945s
Elapsed ordering time = 950s
Elapsed ordering time = 955s
Elapsed ordering time = 960s
Elapsed ordering time = 965s
Elapsed ordering time = 970s
Elapsed ordering time = 975s
Elapsed ordering time = 980s
Elapsed ordering time = 985s
Elapsed ordering time = 990s
Elapsed ordering time = 995s
Elapsed ordering time = 1000s
Elapsed ordering time = 1005s
Elapsed ordering time = 1010s
Elapsed ordering time = 1015s
Elapsed ordering time = 1020s
Elapsed ordering time = 1025s
Elapsed ordering time = 1030s
Elapsed ordering time = 1035s
Elapsed ordering time = 1040s
Elapsed ordering time = 1045s
Elapsed ordering time = 1050s
Elapsed ordering time = 1055s
Elapsed ordering time = 1060s
Elapsed ordering time = 1065s
Elapsed ordering time = 1110s
Elapsed ordering time = 1113s
Elapsed ordering time = 1117s
Elapsed ordering time = 1122s
Elapsed ordering time = 1127s
Elapsed ordering time = 1131s
Elapsed ordering time = 1137s
Elapsed ordering time = 1141s
Elapsed ordering time = 1146s
Elapsed ordering time = 1151s
Elapsed ordering time = 1158s
Elapsed ordering time = 1161s
Elapsed ordering time = 1166s
Elapsed ordering time = 1171s
Elapsed ordering time = 1176s
Elapsed ordering time = 1180s
Elapsed ordering time = 1186s
Elapsed ordering time = 1190s
Elapsed ordering time = 1195s
Elapsed ordering time = 1200s
Elapsed ordering time = 1205s
Elapsed ordering time = 1212s
Elapsed ordering time = 1219s
Elapsed ordering time = 1220s
Elapsed ordering time = 1225s
Elapsed ordering time = 1230s
Elapsed ordering time = 1235s
Elapsed ordering time = 1240s
Elapsed ordering time = 1245s
Elapsed ordering time = 1250s
Elapsed ordering time = 1255s
Elapsed ordering time = 1260s
Elapsed ordering time = 1265s
Elapsed ordering time = 1270s
Elapsed ordering time = 1275s
Elapsed ordering time = 1280s
Elapsed ordering time = 1285s
Elapsed ordering time = 1290s
Elapsed ordering time = 1295s
Elapsed ordering time = 1300s
Elapsed ordering time = 1305s
Elapsed ordering time = 1310s
Elapsed ordering time = 1315s
Elapsed ordering time = 1320s
Elapsed ordering time = 1325s
Elapsed ordering time = 1330s
Elapsed ordering time = 1335s
Elapsed ordering time = 1377s
Ordering time: 1377.23s

Barrier performed 0 iterations in 1531.13 seconds
Barrier solve interrupted - model solved by another algorithm

Concurrent spin time: 590.31s (can be avoided by choosing Method=3)

Solved with dual simplex

Root relaxation: objective 1.196467e+05, 44428 iterations, 1423.66 seconds
Total elapsed time = 1546.81s
Total elapsed time = 1551.84s
Total elapsed time = 1556.89s

    Nodes    |    Current Node    |     Objective Bounds      |     Work
 Expl Unexpl |  Obj  Depth IntInf | Incumbent    BestBd   Gap | It/Node Time

     0     0 119646.710    0 1497          - 119646.710      -     - 1569s
     0     0 119646.710    0 1675          - 119646.710      -     - 1899s
     0     0 119665.402    0 1696          - 119665.402      -     - 1995s
     0     0 119833.630    0 1739          - 119833.630      -     - 2040s
     0     0 119833.630    0 1681          - 119833.630      -     - 2064s
     0     0 119833.630    0 1519          - 119833.630      -     - 2223s
     0     0 119833.630    0 1670          - 119833.630      -     - 2279s
     0     0 119833.630    0 1711          - 119833.630      -     - 2439s
     0     0 119833.630    0 1758          - 119833.630      -     - 2522s
     0     0 119833.630    0 1584          - 119833.630      -     - 2682s
     0     0 119924.992    0 1723          - 119924.992      -     - 3017s
     0     0 119952.044    0 1793          - 119952.044      -     - 3240s
     0     0 119973.059    0 1789          - 119973.059      -     - 3565s

Cutting planes:
  Learned: 101
  Gomory: 16
  Cover: 17
  Implied bound: 1512
  Clique: 231
  MIR: 542
  StrongCG: 63
  GUB cover: 7
  RLT: 3
  Relax-and-lift: 4449

Explored 1 nodes (95941 simplex iterations) in 3600.23 seconds
Thread count was 4 (of 4 available processors)

Solution count 0

Time limit reached
Best objective -, best bound 1.199730589993e+05, gap -
Gurobi 9.1.2: time limit without a feasible solution
95941 simplex iterations
1 branch-and-cut nodes
No basis.
No primal or dual variables returned.
sum{(i,j) in Arcs, k in K: i != j} c[i,j]*x[i,j,k] + sum{(i,j) in Arcs, 
  k in K} cto[i,j]*x[i,j,k] = 0

sum{(i,j) in Arcs, k in K: i != j} c[i,j]*x[i,j,k] = 0

sum{(i,j) in Arcs, k in K: i != j} cto[i,j]*x[i,j,k] = 0

COST = 0

